13 200
0 0 70 70 0 0 1351 0 0 0
1 45 89 73 10 19 474 90 0 24
2 129 88 35 20 39 665 90 0 2
3 11 86 36 20 175 652 90 0 13
4 6 86 37 10 313 696 90 0 43
5 90 57 53 10 470 869 90 0 39
6 67 59 56 20 478 1047 90 0 107
7 24 98 70 -10 148 830 90 45 0
8 2 59 52 -20 332 822 90 129 0
9 13 63 50 -20 115 664 90 11 0
10 43 61 48 -10 237 729 90 6 0
11 39 61 59 -10 699 1203 90 90 0
12 107 64 61 -20 771 1251 90 67 0

